; time discretisation 0.001  
; NSTATES 3 
; NINPUTS 1 
; NINPUTS 1 
(define-fun A00r () Real  2.999475125142 )
(define-fun A01r () Real (- 1.499475131465) )
(define-fun A02r () Real 0.999475137788 )
(define-fun A10r () Real 2.000000000000 )
(define-fun A11r () Real 0.000000000000 )
(define-fun A12r () Real 0.000000000000 )
(define-fun A20r () Real 0.000000000000 )
(define-fun A21r () Real 0.500000000000 )
(define-fun A22r () Real 0.000000000000 )
(define-fun B0r () Real 0.000007629395 )
(define-fun B1r () Real 0.000000000000 )
(define-fun B2r () Real 0.000000000000 )
; SMT 2

; ####  declare spec #### 


(define-fun upperr () Real 1.0)
(define-fun lowerr () Real (- 1.0))
(define-fun init_upperr () Real 0.1)
(define-fun init_lowerr () Real (- 0.1))


; float point representation of spec
(define-fun A00 () (_ FloatingPoint 11 53) ((_ to_fp 11 53) roundNearestTiesToEven A00r))
(define-fun A01 () (_ FloatingPoint 11 53) ((_ to_fp 11 53) roundNearestTiesToEven A01r))
(define-fun A02 () (_ FloatingPoint 11 53) ((_ to_fp 11 53) roundNearestTiesToEven A02r))
(define-fun A10 () (_ FloatingPoint 11 53) ((_ to_fp 11 53) roundNearestTiesToEven A10r))
(define-fun A11 () (_ FloatingPoint 11 53) ((_ to_fp 11 53) roundNearestTiesToEven A11r))
(define-fun A12 () (_ FloatingPoint 11 53) ((_ to_fp 11 53) roundNearestTiesToEven A12r))
(define-fun A20 () (_ FloatingPoint 11 53) ((_ to_fp 11 53) roundNearestTiesToEven A20r))
(define-fun A21 () (_ FloatingPoint 11 53) ((_ to_fp 11 53) roundNearestTiesToEven A21r))
(define-fun A22 () (_ FloatingPoint 11 53) ((_ to_fp 11 53) roundNearestTiesToEven A22r))
(define-fun B0 () (_ FloatingPoint 11 53) ((_ to_fp 11 53) roundNearestTiesToEven B0r))
(define-fun B1 () (_ FloatingPoint 11 53) ((_ to_fp 11 53) roundNearestTiesToEven B1r))
(define-fun B2 () (_ FloatingPoint 11 53) ((_ to_fp 11 53) roundNearestTiesToEven B2r))

(define-fun upper () (_ FloatingPoint 11 53) ((_ to_fp 11 53) roundNearestTiesToEven upperr))
(define-fun lower () (_ FloatingPoint 11 53) ((_ to_fp 11 53) roundNearestTiesToEven lowerr))
(define-fun init_upper () (_ FloatingPoint 11 53) ((_ to_fp 11 53) roundNearestTiesToEven init_upperr))
(define-fun init_lower () (_ FloatingPoint 11 53) ((_ to_fp 11 53) roundNearestTiesToEven init_lowerr))
(define-fun inputupper () (_ FloatingPoint 11 53) ((_ to_fp 11 53) roundNearestTiesToEven 10.0))
(define-fun inputlower () (_ FloatingPoint 11 53) ((_ to_fp 11 53) roundNearestTiesToEven (- 10.0)))

; controller
(synth-fun K0 () (_ FloatingPoint 11 53))
(synth-fun K1 () (_ FloatingPoint 11 53))
(synth-fun K2 () (_ FloatingPoint 11 53))

; #### is stable #### 
(define-fun AminusBK00 () (_ FloatingPoint 11 53) (fp.sub roundNearestTiesToEven A00 (fp.mul roundNearestTiesToEven B0 K0)))
(define-fun AminusBK01 () (_ FloatingPoint 11 53) (fp.sub roundNearestTiesToEven A01 (fp.mul roundNearestTiesToEven B0 K1)))
(define-fun AminusBK02 () (_ FloatingPoint 11 53) (fp.sub roundNearestTiesToEven A02 (fp.mul roundNearestTiesToEven B0 K2)))
(define-fun AminusBK10 () (_ FloatingPoint 11 53) (fp.sub roundNearestTiesToEven A10 (fp.mul roundNearestTiesToEven B1 K0)))
(define-fun AminusBK11 () (_ FloatingPoint 11 53) (fp.sub roundNearestTiesToEven A11 (fp.mul roundNearestTiesToEven B1 K1)))
(define-fun AminusBK12 () (_ FloatingPoint 11 53) (fp.sub roundNearestTiesToEven A12 (fp.mul roundNearestTiesToEven B1 K2)))
(define-fun AminusBK20 () (_ FloatingPoint 11 53) (fp.sub roundNearestTiesToEven A20 (fp.mul roundNearestTiesToEven B2 K0)))
(define-fun AminusBK21 () (_ FloatingPoint 11 53) (fp.sub roundNearestTiesToEven A21 (fp.mul roundNearestTiesToEven B2 K1)))
(define-fun AminusBK22 () (_ FloatingPoint 11 53) (fp.sub roundNearestTiesToEven A21 (fp.mul roundNearestTiesToEven B2 K2)))



(declare-oracle-fun isStable  ((_ FloatingPoint 11 53)(_ FloatingPoint 11 53)(_ FloatingPoint 11 53)(_ FloatingPoint 11 53)
	(_ FloatingPoint 11 53)(_ FloatingPoint 11 53)(_ FloatingPoint 11 53)(_ FloatingPoint 11 53)
	(_ FloatingPoint 11 53)) Bool isstable3)
(constraint (isStable AminusBK00 AminusBK01 AminusBK02 AminusBK10 AminusBK11 AminusBK12 AminusBK20 AminusBK21 AminusBK22))


(constraint (and (not (fp.isNaN AminusBK00)) (fp.lt AminusBK00 inputupper)(fp.gt AminusBK00 inputlower)))
(constraint (and (not (fp.isNaN AminusBK01)) (fp.lt AminusBK01 inputupper)(fp.gt AminusBK01 inputlower)))
(constraint (and (not (fp.isNaN AminusBK02)) (fp.lt AminusBK02 inputupper)(fp.gt AminusBK02 inputlower)))
(constraint (and (not (fp.isNaN AminusBK10)) (fp.lt AminusBK10 inputupper)(fp.gt AminusBK10 inputlower)))
(constraint (and (not (fp.isNaN AminusBK11)) (fp.lt AminusBK11 inputupper)(fp.gt AminusBK11 inputlower)))
(constraint (and (not (fp.isNaN AminusBK12)) (fp.lt AminusBK12 inputupper)(fp.gt AminusBK12 inputlower)))
(constraint (and (not (fp.isNaN AminusBK20)) (fp.lt AminusBK20 inputupper)(fp.gt AminusBK20 inputlower)))
(constraint (and (not (fp.isNaN AminusBK21)) (fp.lt AminusBK21 inputupper)(fp.gt AminusBK21 inputlower)))
(constraint (and (not (fp.isNaN AminusBK22)) (fp.lt AminusBK22 inputupper)(fp.gt AminusBK22 inputlower)))

; ####  assert unrolling is safe using floating point####

; (declare-var x0  (_ FloatingPoint 11 53))
; (declare-var x1  (_ FloatingPoint 11 53))
; (declare-var x2  (_ FloatingPoint 11 53))
; ; step states
; (declare-var x0step1  (_ FloatingPoint 11 53))
; (declare-var x1step1  (_ FloatingPoint 11 53))
; (declare-var x2step1  (_ FloatingPoint 11 53))
; (declare-var x0step2  (_ FloatingPoint 11 53))
; (declare-var x1step2 (_ FloatingPoint 11 53))
; (declare-var x2step2 (_ FloatingPoint 11 53))
; (declare-var x0step3 (_ FloatingPoint 11 53))
; (declare-var x1step3 (_ FloatingPoint 11 53))
; (declare-var x2step3 (_ FloatingPoint 11 53))


; (define-fun unroll ((x0 (_ FloatingPoint 11 53)) (x1 (_ FloatingPoint 11 53))(x2 (_ FloatingPoint 11 53))(x0step1 (_ FloatingPoint 11 53) ) (x1step1 (_ FloatingPoint 11 53))(x2step1 (_ FloatingPoint 11 53)) ) Bool
; (and
; (= x0step1 (fp.add roundNearestTiesToEven (fp.mul roundNearestTiesToEven AminusBK00 x0) 
; 	(fp.add roundNearestTiesToEven
; 	(fp.mul roundNearestTiesToEven AminusBK01 x1)
; 	(fp.mul roundNearestTiesToEven AminusBK02 x2))))
; (= x1step1 (fp.add roundNearestTiesToEven (fp.mul roundNearestTiesToEven AminusBK10 x0) 
; 	(fp.add roundNearestTiesToEven
; 	(fp.mul roundNearestTiesToEven AminusBK11 x1)
; 	(fp.mul roundNearestTiesToEven AminusBK12 x2))))
; (= x1step2 (fp.add roundNearestTiesToEven (fp.mul roundNearestTiesToEven AminusBK20 x0) 
; 	(fp.add roundNearestTiesToEven
; 	(fp.mul roundNearestTiesToEven AminusBK21 x1)
; 	(fp.mul roundNearestTiesToEven AminusBK22 x2))))

; ))

; ; states are safe
; (define-fun bounds_check ((x0 (_ FloatingPoint 11 53)) (x1 (_ FloatingPoint 11 53))(x2 (_ FloatingPoint 11 53))) Bool
; 	(and (fp.lt x0 upper) (fp.gt x0 lower) (fp.lt x1 upper)(fp.gt x1 lower)(fp.lt x2 upper)(fp.gt x2 lower)))

; ; states are corner cases of init box
; (define-fun init ((x0 (_ FloatingPoint 11 53)) (x1 (_ FloatingPoint 11 53)) (x2 (_ FloatingPoint 11 53)) ) Bool
; 	(and (or (= x0 init_upper) (= x0 init_lower))(or (= x1 init_upper)(= x1 init_lower))(or (= x2 init_upper)(= x2 init_lower))  ))


; (constraint (=> (and (init x0 x1 x2)(unroll x0 x1 x2 x0step1 x1step1 x2step1)) (bounds_check x0step1 x1step1 x2step1)))
; (constraint (=> (and (init x0 x1 x2)
; 	(unroll x0 x1 x2 x0step1 x1step1 x2step1)
; 	(unroll x0step1 x1step1 x2step1 x0step2 x1step2 x2step2))(bounds_check x0step2 x1step2 x2step2)))
; (constraint (=> (and (init x0 x1 x2)
; 	(unroll x0 x1 x2 x0step1 x1step1 x2step1)
; 	(unroll x0step1 x1step1 x2step1 x0step2 x1step2 x2step2)
; 	(unroll x0step2 x1step2 x2step2 x0step3 x1step3 x2step3)
; 	)(bounds_check x0step3 x1step3 x2step3)))

(check-synth)


